
Gurobi 13.0.1 (win64) logging started Thu Apr  9 23:54:31 2026

Set parameter LogFile to value "C:\Users\jiho\code\cloud_vmp_optimization\experiments\2604-chance-2sp-toy\results\runs\chance_2sp_toy_24vm_ratio_balanced_od8_sp8_bj8_sc10_cap8_avg20_lam010\solver.log"
Set parameter Threads to value 8
Gurobi Optimizer version 13.0.1 build v13.0.1rc0 (win64 - Windows 11+.0 (26200.2))

CPU model: 13th Gen Intel(R) Core(TM) i9-13900K, instruction set [SSE2|AVX|AVX2]
Thread count: 24 physical cores, 32 logical processors, using up to 8 threads

Non-default parameters:
TimeLimit  7200
MIPGap  0.001
Threads  8

Optimize a model with 85967 rows, 60128 columns and 671246 nonzeros (Min)
Model fingerprint: 0x928c95e3
Model has 192 linear objective coefficients
Variable types: 1920 continuous, 58208 integer (58208 binary)
Coefficient statistics:
  Matrix range     [2e-02, 4e+01]
  Objective range  [1e-02, 1e+00]
  Bounds range     [1e+00, 1e+00]
  RHS range        [1e-01, 2e+01]

Presolve removed 5504 rows and 4032 columns
Presolve time: 2.17s
Presolved: 80463 rows, 56096 columns, 660238 nonzeros
Variable types: 0 continuous, 56096 integer (56096 binary)
Deterministic concurrent LP optimizer: primal simplex, dual simplex, and barrier
Showing barrier log only...

Root barrier log...

Ordering time: 1.31s

Barrier statistics:
 Dense cols : 72
 AA' NZ     : 1.332e+06
 Factor NZ  : 6.327e+06 (roughly 100 MB of memory)
 Factor Ops : 3.996e+09 (less than 1 second per iteration)
 Threads    : 5

                  Objective                Residual
Iter       Primal          Dual         Primal    Dual     Compl     Time
   0   5.26915323e+01 -2.69687726e+01  9.88e+02 1.92e-04  2.64e-01     4s
   1   5.13990276e+01 -1.05894187e+03  4.02e+02 2.89e-02  7.35e-02     4s
   2   1.00851470e+01 -8.62901589e+02  2.96e+00 1.79e-02  5.01e-03     5s
   3   4.04103868e+00 -1.22573697e+02  1.78e-11 8.89e-04  6.59e-04     5s
   4   1.88895088e+00 -2.39526094e+00  7.20e-12 4.89e-07  2.23e-05     5s
   5   1.29662569e+00 -7.00692463e-02  4.29e-12 7.51e-08  7.11e-06     5s
   6   1.17988509e+00  6.65822953e-01  1.78e-12 1.72e-08  2.67e-06     6s
   7   1.06056063e+00  9.50797809e-01  5.55e-13 1.43e-09  5.71e-07     6s
   8   1.00065275e+00  9.99633588e-01  3.55e-14 5.11e-10  5.30e-09     6s
   9   1.00000065e+00  9.99999240e-01  4.26e-14 1.06e-08  7.41e-12     7s
  10   1.00000000e+00  1.00000000e+00  6.59e-13 7.15e-11  5.49e-17     7s

Barrier solved model in 10 iterations and 6.76 seconds (6.75 work units)
Optimal objective 1.00000000e+00


Root crossover log...

    3146 DPushes remaining with DInf 0.0000000e+00                 7s
       0 DPushes remaining with DInf 0.0000000e+00                 7s

   52179 PPushes remaining with PInf 0.0000000e+00                 7s
    3684 PPushes remaining with PInf 0.0000000e+00                10s
       0 PPushes remaining with PInf 0.0000000e+00                10s

  Push phase complete: Pinf 0.0000000e+00, Dinf 0.0000000e+00     10s


Root simplex log...

Iteration    Objective       Primal Inf.    Dual Inf.      Time
   52781    1.0000000e+00   0.000000e+00   0.000000e+00     10s
Crossover time: 3.69 seconds (4.84 work units)
Concurrent spin time: 0.89s (can be avoided by choosing Method=3)

Solved with barrier

Root relaxation: objective 1.000000e+00, 52781 iterations, 8.98 seconds (8.50 work units)

    Nodes    |    Current Node    |     Objective Bounds      |     Work
 Expl Unexpl |  Obj  Depth IntInf | Incumbent    BestBd   Gap | It/Node Time

     0     0    1.00000    0 18829          -    1.00000      -     -   64s
     0     0    2.02388    0 44127          -    2.02388      -     - 1437s
H    0     0                      10.3000000    2.02388  80.4%     - 1697s
     0     0    2.07851    0 16155   10.30000    2.07851  79.8%     - 2620s
H    0     0                       9.9875000    2.07851  79.2%     - 2621s
H    0     0                       9.8375000    2.07851  78.9%     - 2621s
H    0     0                       9.0625000    2.07851  77.1%     - 2621s
H    0     0                       8.8750000    2.07851  76.6%     - 2621s
H    0     0                       8.7875000    2.07851  76.3%     - 2621s
H    0     0                       8.7750000    2.07851  76.3%     - 2622s
H    0     0                       8.7500000    2.07851  76.2%     - 2622s
H    0     0                       8.7375000    2.07851  76.2%     - 2622s
H    0     0                       8.7250000    2.07851  76.2%     - 2622s
H    0     0                       8.7125000    2.07851  76.1%     - 2624s
H    0     0                       8.7000000    2.07851  76.1%     - 2627s
     0     0    2.08143    0 29809    8.70000    2.08143  76.1%     - 2958s
     0     0    2.22268    0 29447    8.70000    2.22268  74.5%     - 4328s
H    0     0                       8.6375000    2.22268  74.3%     - 4329s
H    0     0                       8.6250000    2.22268  74.2%     - 4329s
     0     0    2.22268    0 29376    8.62500    2.22268  74.2%     - 4357s
     0     0    2.24967    0 22767    8.62500    2.24967  73.9%     - 5578s
H    0     0                       8.5750000    2.24967  73.8%     - 5579s
H    0     0                       8.5375000    2.24967  73.6%     - 5580s
H    0     0                       8.5125000    2.24967  73.6%     - 5580s
H    0     0                       8.5000000    2.24967  73.5%     - 5580s
H    0     0                       8.4750000    2.24967  73.5%     - 5580s
H    0     0                       8.4500000    2.24967  73.4%     - 5581s
H    0     0                       8.4375000    2.24967  73.3%     - 5581s
H    0     0                       8.4250000    2.24967  73.3%     - 5581s
H    0     0                       8.4125000    2.24967  73.3%     - 5581s
H    0     0                       8.4000000    2.24967  73.2%     - 5581s
H    0     0                       8.3750000    2.24967  73.1%     - 5582s
H    0     0                       8.3625000    2.24967  73.1%     - 5582s
H    0     0                       8.3500000    2.24967  73.1%     - 5585s
     0     0    2.25596    0 22912    8.35000    2.25596  73.0%     - 6038s
     0     0          -    0         8.35000    2.25596  73.0%     - 7200s

Cutting planes:
  Gomory: 29
  Cover: 100
  Clique: 38
  MIR: 109
  Zero half: 234
  Mod-K: 2
  RLT: 826
  Relax-and-lift: 12
  BQP: 605

Explored 1 nodes (893454 simplex iterations) in 7200.06 seconds (5845.35 work units)
Thread count was 8 (of 32 available processors)

Solution count 10: 8.35 8.3625 8.375 ... 8.5

Time limit reached
Best objective 8.350000000000e+00, best bound 2.262500000000e+00, gap 72.9042%
